gen cost
0 1475
1 1447
2 1416
3 1391
4 1375
5 1352
6 1351
7 1348
8 1334
9 1298
10 1290
11 1278
12 1278
13 1272
14 1266
15 1265
16 1242
17 1229
18 1228
19 1222
20 1214
21 1207
22 1207
23 1195
24 1182
25 1168
26 1168
27 1167
28 1166
29 1166
30 1161
31 1161
32 1161
33 1160
34 1154
35 1148
36 1148
37 1146
38 1144
39 1144
40 1144
41 1143
42 1142
43 1142
44 1142
45 1142
46 1142
47 1142
48 1142
49 1142
